NAME          
ROWS
 E  ROW00001
 E  ROW00002
 L  ROW00003
 L  ROW00004
 E  ROW00005
 E  ROW00006
 L  ROW00007
 L  ROW00008
 L  ROW00009
 L  ROW00010
 E  ROW00011
 E  ROW00012
 L  ROW00013
 L  ROW00014
 E  ROW00015
 E  ROW00016
 L  ROW00017
 L  ROW00018
 L  ROW00019
 L  ROW00020
 L  ROW00021
 L  ROW00022
 L  ROW00023
 L  ROW00024
 L  ROW00025
 L  ROW00026
 L  ROW00027
 N  ROWOBJ
COLUMNS
    COL00001  ROW00024  .301   R09                -1.
    COL00001  ROW00002  -1.06   X05                 1.
    COL00002  ROW00004  -1.   R09                 1.
    COL00002  ROWOBJ             -.4
    COL00003  ROW00022  -1.   R09                 1.
    COL00004  ROW00026  1.   R10                 1.
    COL00005  ROW00025  .301   R12                -1.
    COL00005  ROW00006  -1.06   X17                 1.
    COL00006  ROW00025  .313   R12                -1.
    COL00006  ROW00006  -1.06   X18                 1.
    COL00007  ROW00025  .313   R12                -1.
    COL00007  ROW00006  -.96   X19                 1.
    COL00008  ROW00025  .326   R12                -1.
    COL00008  ROW00006  -.86   X20                 1.
    COL00009  ROW00021  2.364   X17                -1.
    COL00010  ROW00021  2.386   X18                -1.
    COL00011  ROW00021  2.408   X19                -1.
    COL00012  ROW00021  2.429   X20                -1.
    COL00013  ROW00004  1.4   R12                 1.
    COL00013  ROWOBJ            -.32
    COL00014  ROW00023  -1.   R12                 1.
    COL00015  ROW00027  1.   R13                 1.
    COL00016  ROW00022  .109   R19                -1.
    COL00016  ROW00012  -.43   X27                 1.
    COL00017  ROW00014  -1.   R19                 1.
    COL00017  ROWOBJ             -.6
    COL00018  ROW00024  -1.   R19                 1.
    COL00019  ROW00021  -1.   R19                 1.
    COL00020  ROW00026  1.   R20                 1.
    COL00021  ROW00023  .109   R22               -.43
    COL00021  ROW00016  1.   X40                 1.
    COL00022  ROW00023  .108   R22               -.43
    COL00022  ROW00016  1.   X41                 1.
    COL00023  ROW00023  .108   R22               -.39
    COL00023  ROW00016  1.   X42                 1.
    COL00024  ROW00023  .107   R22               -.37
    COL00024  ROW00016  1.   X43                 1.
    COL00025  ROW00021  2.191   X40                -1.
    COL00026  ROW00021  2.219   X41                -1.
    COL00027  ROW00021  2.249   X42                -1.
    COL00028  ROW00021  2.279   X43                -1.
    COL00029  ROW00014  1.4   R23                -1.
    COL00029  ROWOBJ            -.48
    COL00030  ROW00025  -1.   R23                 1.
    COL00031  ROW00027  1.   R22                 1.
    COL00032  ROW00016  1.   COST               10.
RHS
    RHS       ROW00026  310.   X51               300.
    RHS       ROW00003  80.   X17                80.
    RHS       ROW00013  500.   R23                44.
    RHS       ROW00017          500.
ENDATA
